c instance by G2
c solution = 0101101111011001111
c Known solution cost is 718 
p cnf 19 30
w 13 71 81 13 11 26 18 64 19 13 25 34 44 96 19 60 35 15 61
5 -7 -17 0
18 14 -4 0
3 5 1 0
-8 -14 -13 0
-3 -7 16 0
2 -10 -15 0
-8 3 9 0
-15 3 1 0
2 -16 8 0
-2 -5 13 0
19 -16 -5 0
11 16 -10 0
7 6 -8 0
-12 5 -8 0
-2 -11 -13 0
-13 -5 10 0
2 3 -4 0
-7 -18 10 0
-6 -4 -10 0
1 9 11 0
-19 -4 18 0
6 -4 12 0
-19 -1 3 0
-17 -1 11 0
-19 14 17 0
-1 -15 10 0
-3 -7 -18 0
-9 8 15 0
11 4 -8 0
15 8 -4 0
